# 36592
param k := 6;
param n := 50;
param s := 1;
set E :=  (0,13) (0,17) (0,25) (1,12) (1,49) (2,11) (2,13) (2,47) (3,44) (4,29) (4,31) (5,41) (6,11) (6,35) (7,11) (7,25) (7,32) (8,27) (9,27) (9,32) (9,46) (10,11) (10,23) (11,26) (11,33) (13,39) (14,16) (14,23) (14,24) (15,29) (15,34) (16,33) (17,38) (18,28) (18,44) (19,23) (20,34) (21,22) (21,23) (25,36) (25,46) (26,49) (29,40) (29,45) (29,48) (30,34) (31,40) (31,41) (33,45) (37,45) (38,44) (41,42) (43,47);